(set-logic QF_UF)
(declare-fun A0 () Bool)
(declare-fun A1 () Bool)
(declare-fun A2 () Bool)
(declare-fun A3 () Bool)
(declare-fun A4 () Bool)
(declare-fun A5 () Bool)
(declare-fun A6 () Bool)
(declare-fun A7 () Bool)
(declare-fun A8 () Bool)
(declare-fun A9 () Bool)
(declare-fun A10 () Bool)
(declare-fun A11 () Bool)
(declare-fun A12 () Bool)
(declare-fun A13 () Bool)
(declare-fun A14 () Bool)
(declare-fun A15 () Bool)
(declare-fun A16 () Bool)
(declare-fun A17 () Bool)
(declare-fun A18 () Bool)
(declare-fun A19 () Bool)
(declare-fun A20 () Bool)
(declare-fun A21 () Bool)
(declare-fun A22 () Bool)
(declare-fun A23 () Bool)
(declare-fun A24 () Bool)
(assert (let ((.def_0 (not A12))) (let ((.def_1 (or .def_0 A10))) (let ((.def_2 (not A5))) (let ((.def_3 (or .def_2 A10))) (let ((.def_4 (and .def_3 .def_1))) (let ((.def_5 (not .def_4))) (let ((.def_6 (or .def_0 A9))) (let ((.def_7 (not A13))) (let ((.def_8 (or .def_7 .def_2))) (let ((.def_9 (or .def_8 .def_6))) (let ((.def_10 (not .def_9))) (let ((.def_11 (or .def_10 .def_5))) (let ((.def_12 (not .def_11))) (let ((.def_13 (= A18 A18))) (let ((.def_14 (or A5 A18))) (let ((.def_15 (not .def_14))) (let ((.def_16 (or .def_15 .def_13))) (let ((.def_17 (not A21))) (let ((.def_18 (or .def_7 .def_17))) (let ((.def_19 (not .def_18))) (let ((.def_20 (not A4))) (let ((.def_21 (not A15))) (let ((.def_22 (and .def_21 .def_20))) (let ((.def_23 (and .def_22 .def_19))) (let ((.def_24 (or .def_23 .def_16))) (let ((.def_25 (not .def_24))) (let ((.def_26 (= .def_25 .def_12))) (let ((.def_27 (not A24))) (let ((.def_28 (or .def_27 A7))) (let ((.def_29 (not .def_28))) (let ((.def_30 (not A17))) (let ((.def_31 (and .def_30 A6))) (let ((.def_32 (not .def_31))) (let ((.def_33 (and .def_32 .def_29))) (let ((.def_34 (not .def_33))) (let ((.def_35 (and A22 A0))) (let ((.def_36 (not A9))) (let ((.def_37 (or A12 .def_36))) (let ((.def_38 (not .def_37))) (let ((.def_39 (= .def_38 .def_35))) (let ((.def_40 (not .def_39))) (let ((.def_41 (or .def_40 .def_34))) (let ((.def_42 (and A16 .def_36))) (let ((.def_43 (or A6 A12))) (let ((.def_44 (= .def_43 .def_42))) (let ((.def_45 (not .def_44))) (let ((.def_46 (not A18))) (let ((.def_47 (or A18 .def_46))) (let ((.def_48 (and .def_46 A0))) (let ((.def_49 (and .def_48 .def_47))) (let ((.def_50 (or .def_49 .def_45))) (let ((.def_51 (not .def_50))) (let ((.def_52 (= .def_51 .def_41))) (let ((.def_53 (not .def_52))) (let ((.def_54 (or .def_53 .def_26))) (let ((.def_55 (and A8 A8))) (let ((.def_56 (not .def_55))) (let ((.def_57 (not A16))) (let ((.def_58 (and .def_57 A18))) (let ((.def_59 (or .def_58 .def_56))) (let ((.def_60 (not .def_59))) (let ((.def_61 (and A14 A7))) (let ((.def_62 (not .def_61))) (let ((.def_63 (not A10))) (let ((.def_64 (or A6 .def_63))) (let ((.def_65 (not .def_64))) (let ((.def_66 (and .def_65 .def_62))) (let ((.def_67 (and .def_66 .def_60))) (let ((.def_68 (not .def_67))) (let ((.def_69 (and A5 A24))) (let ((.def_70 (not .def_69))) (let ((.def_71 (not A1))) (let ((.def_72 (and .def_71 A16))) (let ((.def_73 (not .def_72))) (let ((.def_74 (and .def_73 .def_70))) (let ((.def_75 (not .def_74))) (let ((.def_76 (or A8 A14))) (let ((.def_77 (not .def_76))) (let ((.def_78 (= .def_30 A24))) (let ((.def_79 (and .def_78 .def_77))) (let ((.def_80 (not .def_79))) (let ((.def_81 (and .def_80 .def_75))) (let ((.def_82 (= .def_81 .def_68))) (let ((.def_83 (or A9 A4))) (let ((.def_84 (not .def_83))) (let ((.def_85 (not A11))) (let ((.def_86 (= .def_85 A23))) (let ((.def_87 (not .def_86))) (let ((.def_88 (and .def_87 .def_84))) (let ((.def_89 (not A23))) (let ((.def_90 (not A7))) (let ((.def_91 (and .def_90 .def_89))) (let ((.def_92 (not .def_91))) (let ((.def_93 (not A14))) (let ((.def_94 (or A21 .def_93))) (let ((.def_95 (and .def_94 .def_92))) (let ((.def_96 (or .def_95 .def_88))) (let ((.def_97 (not .def_96))) (let ((.def_98 (= .def_27 .def_85))) (let ((.def_99 (or A23 A19))) (let ((.def_100 (or .def_99 .def_98))) (let ((.def_101 (not .def_100))) (let ((.def_102 (and A19 A2))) (let ((.def_103 (not .def_102))) (let ((.def_104 (not A3))) (let ((.def_105 (or .def_17 .def_104))) (let ((.def_106 (not .def_105))) (let ((.def_107 (and .def_106 .def_103))) (let ((.def_108 (or .def_107 .def_101))) (let ((.def_109 (and .def_108 .def_97))) (let ((.def_110 (not .def_109))) (let ((.def_111 (or .def_110 .def_82))) (let ((.def_112 (not .def_111))) (let ((.def_113 (or .def_112 .def_54))) (let ((.def_114 (and A7 .def_90))) (let ((.def_115 (not .def_114))) (let ((.def_116 (not A20))) (let ((.def_117 (= .def_116 A12))) (let ((.def_118 (or .def_117 .def_115))) (let ((.def_119 (not .def_118))) (let ((.def_120 (and A14 .def_30))) (let ((.def_121 (or .def_7 .def_36))) (let ((.def_122 (not .def_121))) (let ((.def_123 (or .def_122 .def_120))) (let ((.def_124 (= .def_123 .def_119))) (let ((.def_125 (not .def_124))) (let ((.def_126 (and A17 A14))) (let ((.def_127 (not .def_126))) (let ((.def_128 (and .def_2 A20))) (let ((.def_129 (or .def_128 .def_127))) (let ((.def_130 (not .def_129))) (let ((.def_131 (or A0 .def_85))) (let ((.def_132 (not .def_131))) (let ((.def_133 (and A4 A14))) (let ((.def_134 (not .def_133))) (let ((.def_135 (and .def_134 .def_132))) (let ((.def_136 (not .def_135))) (let ((.def_137 (or .def_136 .def_130))) (let ((.def_138 (not .def_137))) (let ((.def_139 (= .def_138 .def_125))) (let ((.def_140 (not .def_139))) (let ((.def_141 (not A2))) (let ((.def_142 (or .def_141 A16))) (let ((.def_143 (not .def_142))) (let ((.def_144 (= A21 .def_46))) (let ((.def_145 (not .def_144))) (let ((.def_146 (and .def_145 .def_143))) (let ((.def_147 (not .def_146))) (let ((.def_148 (and A3 .def_17))) (let ((.def_149 (not A0))) (let ((.def_150 (or .def_2 .def_149))) (let ((.def_151 (not .def_150))) (let ((.def_152 (or .def_151 .def_148))) (let ((.def_153 (not .def_152))) (let ((.def_154 (and .def_153 .def_147))) (let ((.def_155 (and .def_104 A14))) (let ((.def_156 (not .def_155))) (let ((.def_157 (and .def_36 .def_17))) (let ((.def_158 (not .def_157))) (let ((.def_159 (= .def_158 .def_156))) (let ((.def_160 (not .def_159))) (let ((.def_161 (= .def_57 A15))) (let ((.def_162 (not A22))) (let ((.def_163 (or .def_162 .def_149))) (let ((.def_164 (or .def_163 .def_161))) (let ((.def_165 (not .def_164))) (let ((.def_166 (or .def_165 .def_160))) (let ((.def_167 (not .def_166))) (let ((.def_168 (or .def_167 .def_154))) (let ((.def_169 (not .def_168))) (let ((.def_170 (= .def_169 .def_140))) (let ((.def_171 (not A8))) (let ((.def_172 (and .def_171 .def_57))) (let ((.def_173 (not .def_172))) (let ((.def_174 (or A12 .def_21))) (let ((.def_175 (and .def_174 .def_173))) (let ((.def_176 (not .def_175))) (let ((.def_177 (or .def_89 A2))) (let ((.def_178 (and A1 .def_63))) (let ((.def_179 (or .def_178 .def_177))) (let ((.def_180 (or .def_179 .def_176))) (let ((.def_181 (= A8 .def_36))) (let ((.def_182 (not A6))) (let ((.def_183 (or A11 .def_182))) (let ((.def_184 (not .def_183))) (let ((.def_185 (= .def_184 .def_181))) (let ((.def_186 (or A11 A12))) (let ((.def_187 (and A5 .def_2))) (let ((.def_188 (not .def_187))) (let ((.def_189 (and .def_188 .def_186))) (let ((.def_190 (or .def_189 .def_185))) (let ((.def_191 (= .def_190 .def_180))) (let ((.def_192 (and .def_57 .def_21))) (let ((.def_193 (not .def_192))) (let ((.def_194 (= A8 .def_20))) (let ((.def_195 (not .def_194))) (let ((.def_196 (and .def_195 .def_193))) (let ((.def_197 (and A10 A8))) (let ((.def_198 (or .def_104 .def_71))) (let ((.def_199 (not .def_198))) (let ((.def_200 (or .def_199 .def_197))) (let ((.def_201 (= .def_200 .def_196))) (let ((.def_202 (not .def_201))) (let ((.def_203 (= .def_2 .def_7))) (let ((.def_204 (not .def_203))) (let ((.def_205 (or A20 .def_89))) (let ((.def_206 (or .def_205 .def_204))) (let ((.def_207 (not .def_206))) (let ((.def_208 (or .def_71 A15))) (let ((.def_209 (or .def_2 .def_2))) (let ((.def_210 (not .def_209))) (let ((.def_211 (and .def_210 .def_208))) (let ((.def_212 (and .def_211 .def_207))) (let ((.def_213 (not .def_212))) (let ((.def_214 (or .def_213 .def_202))) (let ((.def_215 (not .def_214))) (let ((.def_216 (and .def_215 .def_191))) (let ((.def_217 (not .def_216))) (let ((.def_218 (and .def_217 .def_170))) (let ((.def_219 (not .def_218))) (let ((.def_220 (or .def_219 .def_113))) (let ((.def_221 (and .def_30 A8))) (let ((.def_222 (not .def_221))) (let ((.def_223 (or .def_17 .def_57))) (let ((.def_224 (not .def_223))) (let ((.def_225 (or .def_224 .def_222))) (let ((.def_226 (or A23 A20))) (let ((.def_227 (not .def_226))) (let ((.def_228 (and A20 .def_7))) (let ((.def_229 (or .def_228 .def_227))) (let ((.def_230 (not .def_229))) (let ((.def_231 (and .def_230 .def_225))) (let ((.def_232 (and A1 A20))) (let ((.def_233 (not .def_232))) (let ((.def_234 (and A14 .def_36))) (let ((.def_235 (or .def_234 .def_233))) (let ((.def_236 (and .def_93 .def_7))) (let ((.def_237 (not .def_236))) (let ((.def_238 (and A8 A4))) (let ((.def_239 (and .def_238 .def_237))) (let ((.def_240 (not .def_239))) (let ((.def_241 (or .def_240 .def_235))) (let ((.def_242 (not .def_241))) (let ((.def_243 (= .def_242 .def_231))) (let ((.def_244 (= A10 A7))) (let ((.def_245 (not .def_244))) (let ((.def_246 (= A21 A3))) (let ((.def_247 (not .def_246))) (let ((.def_248 (or .def_247 .def_245))) (let ((.def_249 (or .def_63 .def_116))) (let ((.def_250 (and .def_141 A12))) (let ((.def_251 (not .def_250))) (let ((.def_252 (or .def_251 .def_249))) (let ((.def_253 (or .def_252 .def_248))) (let ((.def_254 (not .def_253))) (let ((.def_255 (or A6 A20))) (let ((.def_256 (not .def_255))) (let ((.def_257 (or A16 A15))) (let ((.def_258 (or .def_257 .def_256))) (let ((.def_259 (not .def_258))) (let ((.def_260 (and A22 A19))) (let ((.def_261 (and A8 A0))) (let ((.def_262 (not .def_261))) (let ((.def_263 (or .def_262 .def_260))) (let ((.def_264 (= .def_263 .def_259))) (let ((.def_265 (and .def_264 .def_254))) (let ((.def_266 (not .def_265))) (let ((.def_267 (or .def_266 .def_243))) (let ((.def_268 (= A21 .def_162))) (let ((.def_269 (not .def_268))) (let ((.def_270 (= .def_171 A15))) (let ((.def_271 (and .def_270 .def_269))) (let ((.def_272 (not .def_271))) (let ((.def_273 (or .def_36 .def_17))) (let ((.def_274 (or A16 .def_21))) (let ((.def_275 (not .def_274))) (let ((.def_276 (or .def_275 .def_273))) (let ((.def_277 (and .def_276 .def_272))) (let ((.def_278 (not .def_277))) (let ((.def_279 (or A10 A1))) (let ((.def_280 (not .def_279))) (let ((.def_281 (and A19 .def_89))) (let ((.def_282 (not .def_281))) (let ((.def_283 (and .def_282 .def_280))) (let ((.def_284 (not .def_283))) (let ((.def_285 (not A19))) (let ((.def_286 (and A1 .def_285))) (let ((.def_287 (not .def_286))) (let ((.def_288 (= A6 .def_182))) (let ((.def_289 (and .def_288 .def_287))) (let ((.def_290 (or .def_289 .def_284))) (let ((.def_291 (and .def_290 .def_278))) (let ((.def_292 (and A16 .def_90))) (let ((.def_293 (and A12 .def_162))) (let ((.def_294 (not .def_293))) (let ((.def_295 (and .def_294 .def_292))) (let ((.def_296 (and A22 A9))) (let ((.def_297 (not .def_296))) (let ((.def_298 (and .def_85 .def_116))) (let ((.def_299 (not .def_298))) (let ((.def_300 (and .def_299 .def_297))) (let ((.def_301 (not .def_300))) (let ((.def_302 (and .def_301 .def_295))) (let ((.def_303 (not .def_302))) (let ((.def_304 (and .def_36 A12))) (let ((.def_305 (or .def_0 .def_171))) (let ((.def_306 (or .def_305 .def_304))) (let ((.def_307 (and .def_104 A7))) (let ((.def_308 (= .def_89 A6))) (let ((.def_309 (and .def_308 .def_307))) (let ((.def_310 (not .def_309))) (let ((.def_311 (or .def_310 .def_306))) (let ((.def_312 (not .def_311))) (let ((.def_313 (and .def_312 .def_303))) (let ((.def_314 (and .def_313 .def_291))) (let ((.def_315 (= .def_314 .def_267))) (let ((.def_316 (or A4 .def_63))) (let ((.def_317 (or .def_30 .def_149))) (let ((.def_318 (not .def_317))) (let ((.def_319 (and .def_318 .def_316))) (let ((.def_320 (and A19 A16))) (let ((.def_321 (or .def_71 A22))) (let ((.def_322 (and .def_321 .def_320))) (let ((.def_323 (and .def_322 .def_319))) (let ((.def_324 (not .def_323))) (let ((.def_325 (and .def_90 .def_104))) (let ((.def_326 (or .def_93 A1))) (let ((.def_327 (and .def_326 .def_325))) (let ((.def_328 (or .def_36 A0))) (let ((.def_329 (not .def_328))) (let ((.def_330 (and .def_171 A12))) (let ((.def_331 (not .def_330))) (let ((.def_332 (or .def_331 .def_329))) (let ((.def_333 (not .def_332))) (let ((.def_334 (= .def_333 .def_327))) (let ((.def_335 (not .def_334))) (let ((.def_336 (and .def_335 .def_324))) (let ((.def_337 (not .def_336))) (let ((.def_338 (= .def_182 A10))) (let ((.def_339 (not .def_338))) (let ((.def_340 (or A17 A1))) (let ((.def_341 (not .def_340))) (let ((.def_342 (and .def_341 .def_339))) (let ((.def_343 (not .def_342))) (let ((.def_344 (and .def_30 .def_116))) (let ((.def_345 (not .def_344))) (let ((.def_346 (or .def_171 .def_2))) (let ((.def_347 (or .def_346 .def_345))) (let ((.def_348 (or .def_347 .def_343))) (let ((.def_349 (not .def_348))) (let ((.def_350 (or A16 .def_63))) (let ((.def_351 (and .def_71 .def_2))) (let ((.def_352 (not .def_351))) (let ((.def_353 (= .def_352 .def_350))) (let ((.def_354 (not .def_353))) (let ((.def_355 (= .def_7 .def_182))) (let ((.def_356 (not .def_355))) (let ((.def_357 (or .def_0 A7))) (let ((.def_358 (not .def_357))) (let ((.def_359 (and .def_358 .def_356))) (let ((.def_360 (or .def_359 .def_354))) (let ((.def_361 (not .def_360))) (let ((.def_362 (or .def_361 .def_349))) (let ((.def_363 (= .def_362 .def_337))) (let ((.def_364 (and A15 .def_93))) (let ((.def_365 (and .def_93 A10))) (let ((.def_366 (not .def_365))) (let ((.def_367 (and .def_366 .def_364))) (let ((.def_368 (or A15 .def_21))) (let ((.def_369 (not .def_368))) (let ((.def_370 (and A21 A17))) (let ((.def_371 (and .def_370 .def_369))) (let ((.def_372 (not .def_371))) (let ((.def_373 (or .def_372 .def_367))) (let ((.def_374 (not .def_373))) (let ((.def_375 (and .def_182 .def_285))) (let ((.def_376 (not .def_375))) (let ((.def_377 (and .def_17 .def_63))) (let ((.def_378 (and .def_377 .def_376))) (let ((.def_379 (not .def_378))) (let ((.def_380 (and .def_85 .def_27))) (let ((.def_381 (not .def_380))) (let ((.def_382 (or A14 A22))) (let ((.def_383 (and .def_382 .def_381))) (let ((.def_384 (or .def_383 .def_379))) (let ((.def_385 (or .def_384 .def_374))) (let ((.def_386 (not .def_385))) (let ((.def_387 (and A22 .def_182))) (let ((.def_388 (and A12 A12))) (let ((.def_389 (and .def_388 .def_387))) (let ((.def_390 (not .def_389))) (let ((.def_391 (= A11 .def_20))) (let ((.def_392 (not .def_391))) (let ((.def_393 (or .def_162 .def_7))) (let ((.def_394 (not .def_393))) (let ((.def_395 (or .def_394 .def_392))) (let ((.def_396 (or .def_395 .def_390))) (let ((.def_397 (or .def_182 A4))) (let ((.def_398 (or .def_0 A8))) (let ((.def_399 (or .def_398 .def_397))) (let ((.def_400 (not .def_399))) (let ((.def_401 (or .def_46 .def_141))) (let ((.def_402 (and .def_71 .def_36))) (let ((.def_403 (not .def_402))) (let ((.def_404 (and .def_403 .def_401))) (let ((.def_405 (and .def_404 .def_400))) (let ((.def_406 (or .def_405 .def_396))) (let ((.def_407 (= .def_406 .def_386))) (let ((.def_408 (or .def_407 .def_363))) (let ((.def_409 (not .def_408))) (let ((.def_410 (and .def_409 .def_315))) (let ((.def_411 (and .def_410 .def_220))) (let ((.def_412 (not .def_411))) .def_412))))))))))))))))))))))))))))))))))))))))))))))))))))))))))))))))))))))))))))))))))))))))))))))))))))))))))))))))))))))))))))))))))))))))))))))))))))))))))))))))))))))))))))))))))))))))))))))))))))))))))))))))))))))))))))))))))))))))))))))))))))))))))))))))))))))))))))))))))))))))))))))))))))))))))))))))))))))))))))))))))))))))))))))))))))))))))))))))))))))))))))))))))))))))))))))))))))))))))))))))))))))))))))))
(check-sat)
